WARNING: for repeatability, setting FPU to use double precision
============================[ Problem Statistics ]=============================
|                                                                             |
|  Number of variables:            50                                         |
|  Number of clauses:             218                                         |
|  Parse time:                   0.00 s                                       |
|                                                                             |
============================[ Search Statistics ]==============================
| Conflicts |          ORIGINAL         |          LEARNT          | Progress |
|           |    Vars  Clauses Literals |    Limit  Clauses Lit/Cl |          |
===============================================================================
===============================================================================
restarts              : 1
conflicts             : 55             (37827 /sec)
decisions             : 65             (0.00 % random) (44704 /sec)
propagations          : 711            (488996 /sec)
conflict literals     : 190            (12.84 % deleted)
Memory used           : 20.00 MB
CPU time              : 0.001454 s

UNSATISFIABLE
